Period = 28;

TSS_period = 650;
TSSb_period = 650;
TSSr_period = 650;
TSSs_period = 650;

CTLconst = 42;
ATLconst = 7;
CTLramp = 4;

CTL_0 = 42;
CTLb_0 = 28;
CTLr_0 = 8;
CTLs_0 = 6;

ATL_0 = 47;
ATLb_0 = 40;
ATLr_0 = 2;
ATLs_0 = 5;